Normalized Data/p04_20_normalized_splitx10_0.vrp
NAME:p04_20_NORMALIZED_splitx10_
BEST_KNOWN: 0
COMMENT: 0
DIMENSION: 611
CAPACITY: 1000
EDGE_WEIGHT_FORMAT: FUNCTION
EDGE_WEIGHT_TYPE: EXACT_2D
NODE_COORD_SECTION
1 0.00000 0.00000
2 42 -28
3 42 -28
4 42 -28
5 42 -28
6 42 -28
7 48 0
8 48 0
9 48 0
10 48 0
11 48 0
12 48 0
13 11 10
14 11 10
15 11 10
16 11 10
17 -39 14
18 -39 14
19 -39 14
20 -39 14
21 -39 14
22 -39 14
23 -1 -4
24 -1 -4
25 -1 -4
26 -1 -4
27 -1 -4
28 4 -15
29 4 -15
30 4 -15
31 1 17
32 1 17
33 1 17
34 20 50
35 20 50
36 20 50
37 -4 -27
38 -4 -27
39 -4 -27
40 -4 -27
41 -4 -27
42 44 -22
43 44 -22
44 44 -22
45 44 -22
46 44 -22
47 44 -22
48 47 -38
49 47 -38
50 42 -25
51 42 -25
52 42 -25
53 42 -25
54 42 -25
55 -23 36
56 -23 36
57 -23 36
58 -23 36
59 -23 36
60 13 -31
61 13 -31
62 13 -31
63 13 -31
64 13 -31
65 13 -31
66 42 1
67 42 1
68 -24 -27
69 -24 -27
70 -24 -27
71 -17 44
72 -17 44
73 -17 44
74 -17 44
75 -17 44
76 -17 44
77 -2 50
78 -2 50
79 -2 50
80 -2 50
81 -2 50
82 -4 20
83 -4 20
84 -4 20
85 -4 20
86 -4 20
87 -4 20
88 26 42
89 26 42
90 26 42
91 26 42
92 26 42
93 45 -14
94 45 -14
95 45 -14
96 45 -14
97 45 -14
98 45 -14
99 -15 -9
100 -15 -9
101 -15 -9
102 -15 -9
103 -15 -9
104 -47 38
105 -47 38
106 -47 38
107 -47 38
108 46 17
109 46 17
110 46 17
111 46 17
112 46 17
113 46 17
114 46 17
115 -42 -24
116 -42 -24
117 -42 -24
118 -42 -24
119 18 -49
120 18 -49
121 18 -49
122 18 -49
123 -19 20
124 -19 20
125 -19 20
126 -19 20
127 -19 20
128 -19 20
129 -29 28
130 -29 28
131 -29 28
132 -29 28
133 -13 30
134 -13 30
135 -33 -50
136 -33 -50
137 -33 -50
138 -33 -50
139 -47 28
140 -47 28
141 -33 34
142 -33 34
143 -33 34
144 -33 34
145 -33 34
146 49 -29
147 49 -29
148 49 -29
149 26 -48
150 26 -48
151 26 -48
152 -42 26
153 -42 26
154 -42 26
155 42 36
156 42 36
157 42 36
158 27 39
159 27 39
160 29 33
161 29 33
162 29 33
163 13 35
164 13 35
165 13 35
166 13 35
167 13 35
168 13 -46
169 13 -46
170 13 -46
171 -38 27
172 -38 27
173 -38 27
174 -38 27
175 23 -31
176 23 -31
177 23 -31
178 23 -31
179 23 -31
180 2 42
181 2 42
182 2 42
183 -1 13
184 -1 13
185 26 19
186 26 19
187 26 19
188 8 -33
189 8 -33
190 8 -33
191 8 -33
192 8 -33
193 8 -33
194 8 -33
195 -16 43
196 -16 43
197 -16 43
198 -16 43
199 -16 43
200 -16 43
201 -16 43
202 -4 -2
203 -4 -2
204 -4 -2
205 -4 -2
206 -3 18
207 -3 18
208 -3 18
209 -3 18
210 -3 18
211 46 39
212 46 39
213 46 39
214 -35 10
215 -35 10
216 -35 10
217 -35 10
218 -35 10
219 -17 34
220 -17 34
221 -17 34
222 -17 34
223 -17 34
224 7 32
225 7 32
226 7 32
227 7 32
228 7 32
229 -41 19
230 -41 19
231 -41 23
232 -41 23
233 -41 23
234 -41 23
235 -41 23
236 33 24
237 33 24
238 33 24
239 33 24
240 33 24
241 33 24
242 -19 32
243 -19 32
244 -19 32
245 -19 32
246 -19 32
247 -19 32
248 37 -38
249 37 -38
250 37 -38
251 -45 24
252 -45 24
253 17 -7
254 17 -7
255 17 -7
256 44 -31
257 44 -31
258 44 -31
259 44 -31
260 12 4
261 12 4
262 12 4
263 27 -16
264 27 -16
265 27 -16
266 27 -16
267 27 -16
268 11 28
269 11 28
270 11 28
271 11 28
272 22 29
273 22 29
274 22 29
275 -23 3
276 -23 3
277 -23 3
278 -23 3
279 -23 3
280 -27 13
281 -27 13
282 -27 13
283 2 -37
284 2 -37
285 2 -37
286 2 -37
287 2 -37
288 -10 -43
289 -10 -43
290 -10 -43
291 -10 -43
292 -10 -43
293 -10 -43
294 31 -33
295 31 -33
296 31 -33
297 14 20
298 14 20
299 14 20
300 14 20
301 14 20
302 14 20
303 -19 -9
304 -19 -9
305 -29 -13
306 -29 -13
307 -29 -13
308 -29 -13
309 -29 -13
310 -24 -44
311 -24 -44
312 17 26
313 17 26
314 17 26
315 17 26
316 17 26
317 27 35
318 27 35
319 -21 40
320 -21 40
321 -21 40
322 -21 40
323 -21 40
324 -21 40
325 -4 -43
326 -4 -43
327 -4 -43
328 -4 -43
329 -4 -43
330 -4 -43
331 26 -33
332 26 -33
333 26 -33
334 26 -33
335 26 -33
336 26 -33
337 -25 27
338 -25 27
339 -25 27
340 43 -20
341 43 -20
342 43 -20
343 43 -20
344 29 23
345 29 23
346 -7 -26
347 -7 -26
348 -7 -26
349 26 46
350 26 46
351 26 46
352 26 46
353 35 -35
354 35 -35
355 35 -35
356 18 36
357 18 36
358 18 36
359 18 36
360 18 36
361 18 36
362 -42 -20
363 -42 -20
364 -42 -20
365 -42 -20
366 -42 -20
367 18 11
368 18 11
369 18 11
370 -18 43
371 -18 43
372 -18 43
373 -18 43
374 -18 43
375 -38 18
376 -38 18
377 -38 18
378 -41 -2
379 -41 -2
380 -41 -2
381 -41 -2
382 -41 -2
383 -41 -2
384 -28 19
385 -28 19
386 -28 19
387 -28 19
388 -41 13
389 -41 13
390 -41 13
391 2 16
392 2 16
393 2 16
394 -16 -12
395 -16 -12
396 31 -12
397 31 -12
398 31 -12
399 46 -6
400 46 -6
401 46 -6
402 46 -6
403 46 -6
404 46 -6
405 -11 -27
406 -11 -27
407 -11 -27
408 -11 -27
409 -33 6
410 -33 6
411 -33 6
412 -25 -22
413 -25 -22
414 -25 -22
415 -25 -22
416 21 0
417 21 0
418 21 0
419 21 0
420 21 0
421 -15 48
422 -15 48
423 -15 48
424 -31 12
425 -31 12
426 44 -32
427 44 -32
428 44 -32
429 44 -32
430 44 -32
431 44 -32
432 -49 26
433 -49 26
434 -49 26
435 -49 26
436 -49 26
437 17 -21
438 17 -21
439 17 -21
440 17 17
441 18 -2
442 18 -2
443 -32 36
444 -32 36
445 -32 36
446 6 -50
447 6 -50
448 6 -50
449 6 -50
450 6 -50
451 2 12
452 2 12
453 2 12
454 -25 20
455 -25 20
456 -25 20
457 12 9
458 12 9
459 12 9
460 12 9
461 12 9
462 12 9
463 12 9
464 -11 -12
465 -11 -12
466 -11 -12
467 42 38
468 42 38
469 23 23
470 23 23
471 23 23
472 23 23
473 23 23
474 -43 39
475 -43 39
476 -43 39
477 27 -30
478 27 -30
479 27 -30
480 -49 -40
481 -49 -40
482 -49 -40
483 -49 -40
484 -49 -40
485 -24 21
486 -24 21
487 -24 21
488 12 -31
489 18 34
490 18 34
491 18 34
492 18 34
493 18 34
494 18 34
495 18 34
496 -5 35
497 -5 35
498 40 47
499 40 47
500 40 47
501 40 47
502 30 -19
503 30 -19
504 30 -19
505 42 37
506 42 37
507 42 37
508 42 37
509 -44 -2
510 -44 -2
511 -44 -2
512 -44 -2
513 -44 -2
514 -44 -2
515 23 -7
516 23 -7
517 23 -7
518 23 -7
519 23 -7
520 -26 39
521 -26 39
522 -26 39
523 -26 39
524 -26 39
525 -50 24
526 -50 24
527 -50 24
528 -49 1
529 -49 1
530 -49 1
531 -49 1
532 -49 1
533 -22 4
534 -22 4
535 -22 4
536 -22 4
537 -22 4
538 -22 4
539 -22 4
540 17 22
541 17 22
542 -19 5
543 -19 5
544 -25 26
545 -25 26
546 -2 39
547 -2 39
548 -2 39
549 -2 39
550 -2 39
551 -2 39
552 -2 39
553 -27 12
554 -27 12
555 -27 12
556 -27 12
557 -27 12
558 -27 12
559 3 21
560 3 21
561 3 21
562 3 21
563 3 21
564 3 21
565 -10 -25
566 -10 -25
567 -36 22
568 -36 22
569 -36 22
570 -33 -23
571 -33 -23
572 -33 -23
573 -36 -32
574 -36 -32
575 -36 -32
576 -36 -32
577 -36 -32
578 -36 -32
579 -36 -32
580 9 14
581 42 -7
582 42 -7
583 42 -7
584 42 -7
585 42 -7
586 42 -7
587 42 -7
588 -43 17
589 -17 -8
590 -17 -8
591 -17 -8
592 -17 -8
593 -17 -8
594 -17 -8
595 -48 -19
596 -48 -19
597 -48 -19
598 28 14
599 28 14
600 28 14
601 -11 28
602 -11 28
603 -11 28
604 -11 28
605 -11 28
606 -11 28
607 -11 28
608 44 14
609 44 14
610 44 14
611 44 14
DEMAND_SECTION
1 0
2 200
3 50
4 10
5 10
6 10
7 200
8 100
9 50
10 10
11 10
12 10
13 200
14 200
15 50
16 10
17 200
18 100
19 50
20 10
21 10
22 10
23 200
24 100
25 10
26 10
27 10
28 200
29 100
30 50
31 100
32 50
33 10
34 200
35 100
36 10
37 200
38 100
39 10
40 10
41 10
42 200
43 200
44 10
45 10
46 10
47 10
48 100
49 50
50 200
51 100
52 10
53 10
54 10
55 200
56 100
57 10
58 10
59 10
60 200
61 200
62 10
63 10
64 10
65 10
66 200
67 200
68 200
69 200
70 100
71 200
72 200
73 50
74 10
75 10
76 10
77 200
78 100
79 10
80 10
81 10
82 200
83 200
84 10
85 10
86 10
87 10
88 200
89 200
90 10
91 10
92 10
93 200
94 200
95 50
96 10
97 10
98 10
99 200
100 100
101 10
102 10
103 10
104 200
105 50
106 10
107 10
108 200
109 200
110 50
111 10
112 10
113 10
114 10
115 200
116 100
117 50
118 10
119 200
120 200
121 10
122 10
123 200
124 100
125 10
126 10
127 10
128 10
129 200
130 100
131 50
132 10
133 200
134 200
135 100
136 10
137 10
138 10
139 100
140 50
141 200
142 50
143 10
144 10
145 10
146 200
147 200
148 10
149 200
150 10
151 10
152 200
153 50
154 10
155 200
156 100
157 50
158 200
159 50
160 200
161 10
162 10
163 200
164 200
165 50
166 10
167 10
168 200
169 200
170 100
171 100
172 10
173 10
174 10
175 100
176 10
177 10
178 10
179 10
180 200
181 50
182 10
183 200
184 10
185 200
186 10
187 10
188 200
189 200
190 50
191 10
192 10
193 10
194 10
195 200
196 100
197 50
198 10
199 10
200 10
201 10
202 100
203 10
204 10
205 10
206 100
207 50
208 10
209 10
210 10
211 200
212 10
213 10
214 200
215 200
216 50
217 10
218 10
219 200
220 100
221 10
222 10
223 10
224 100
225 50
226 10
227 10
228 10
229 200
230 100
231 200
232 200
233 10
234 10
235 10
236 200
237 50
238 10
239 10
240 10
241 10
242 200
243 100
244 50
245 10
246 10
247 10
248 200
249 100
250 50
251 200
252 100
253 100
254 50
255 10
256 200
257 100
258 10
259 10
260 200
261 100
262 50
263 200
264 200
265 50
266 10
267 10
268 200
269 200
270 50
271 10
272 100
273 50
274 10
275 200
276 50
277 10
278 10
279 10
280 200
281 200
282 100
283 200
284 50
285 10
286 10
287 10
288 200
289 200
290 10
291 10
292 10
293 10
294 200
295 10
296 10
297 200
298 50
299 10
300 10
301 10
302 10
303 200
304 100
305 100
306 10
307 10
308 10
309 10
310 200
311 50
312 100
313 10
314 10
315 10
316 10
317 100
318 50
319 200
320 100
321 50
322 10
323 10
324 10
325 200
326 200
327 50
328 10
329 10
330 10
331 200
332 200
333 50
334 10
335 10
336 10
337 200
338 200
339 50
340 200
341 200
342 50
343 10
344 200
345 10
346 200
347 50
348 10
349 200
350 200
351 50
352 10
353 200
354 200
355 10
356 200
357 50
358 10
359 10
360 10
361 10
362 200
363 10
364 10
365 10
366 10
367 200
368 200
369 50
370 200
371 10
372 10
373 10
374 10
375 200
376 200
377 10
378 200
379 200
380 50
381 10
382 10
383 10
384 200
385 100
386 10
387 10
388 100
389 50
390 10
391 200
392 50
393 10
394 200
395 50
396 100
397 50
398 10
399 200
400 50
401 10
402 10
403 10
404 10
405 200
406 100
407 10
408 10
409 100
410 50
411 10
412 200
413 100
414 50
415 10
416 100
417 10
418 10
419 10
420 10
421 200
422 100
423 50
424 200
425 10
426 100
427 50
428 10
429 10
430 10
431 10
432 200
433 100
434 50
435 10
436 10
437 100
438 50
439 10
440 200
441 200
442 50
443 100
444 10
445 10
446 100
447 10
448 10
449 10
450 10
451 200
452 200
453 100
454 200
455 100
456 10
457 200
458 200
459 50
460 10
461 10
462 10
463 10
464 200
465 200
466 10
467 200
468 10
469 200
470 100
471 10
472 10
473 10
474 200
475 200
476 100
477 200
478 200
479 100
480 200
481 50
482 10
483 10
484 10
485 200
486 10
487 10
488 200
489 200
490 200
491 50
492 10
493 10
494 10
495 10
496 200
497 100
498 200
499 50
500 10
501 10
502 200
503 100
504 50
505 200
506 10
507 10
508 10
509 200
510 200
511 10
512 10
513 10
514 10
515 200
516 100
517 10
518 10
519 10
520 200
521 100
522 50
523 10
524 10
525 100
526 50
527 10
528 200
529 10
530 10
531 10
532 10
533 200
534 100
535 50
536 10
537 10
538 10
539 10
540 200
541 100
542 100
543 50
544 200
545 100
546 200
547 200
548 50
549 10
550 10
551 10
552 10
553 200
554 100
555 10
556 10
557 10
558 10
559 200
560 200
561 10
562 10
563 10
564 10
565 200
566 10
567 100
568 50
569 10
570 200
571 50
572 10
573 200
574 200
575 50
576 10
577 10
578 10
579 10
580 200
581 200
582 100
583 50
584 10
585 10
586 10
587 10
588 200
589 200
590 100
591 10
592 10
593 10
594 10
595 200
596 100
597 10
598 200
599 50
600 10
601 200
602 100
603 50
604 10
605 10
606 10
607 10
608 200
609 200
610 10
611 10
DEPOT_SECTION
1
-1
EOF