Normalized Data/p04_20_normalized_splitx10_0.sol
610 -3 1 2 4 5 48 47 146 145 147 395 -13 15 14 12 461 456 458 457 460 459 462 -20 18 21 19 387 388 389 587 229 228 374 376 554 557 556 555 -26 25 23 24 22 465 463 464 394 393 -27 37 36 347 346 345 565 564 -29 28 187 192 487 64 60 61 62 63 59 -30 31 32 563 561 560 562 559 558 390 392 391 -34 35 33 349 350 351 348 90 87 -40 39 38 329 325 326 327 328 324 292 291 290 288 287 289 -42 43 44 46 45 41 339 341 340 342 396 397 516 517 518 -51 52 49 50 53 257 258 255 256 429 426 427 428 430 425 437 438 436 -57 58 56 55 323 322 320 318 319 321 370 372 373 369 371 200 194 199 -66 65 9 10 7 6 8 11 581 583 585 586 582 -81 86 603 606 605 601 604 602 600 132 133 -93 96 97 92 95 94 400 401 403 399 402 398 584 580 -102 99 100 98 101 303 302 588 589 592 590 593 591 -114 117 115 482 479 480 481 483 135 134 136 137 310 309 -123 122 242 241 246 243 218 220 219 221 222 -124 127 338 337 336 544 543 485 484 486 -125 126 131 129 128 130 384 383 454 453 455 -141 144 142 143 140 444 442 443 520 519 522 523 521 54 245 244 -163 165 166 162 164 268 270 267 269 -176 177 174 175 178 150 149 148 121 120 119 118 448 446 445 447 449 283 286 284 -182 183 452 451 450 -190 189 193 191 188 167 168 169 285 282 -197 195 198 196 75 73 74 71 70 72 420 422 421 -202 204 203 201 276 275 274 278 277 536 532 537 535 533 534 541 542 -207 208 209 205 206 85 82 84 83 495 496 548 546 547 551 549 550 -225 226 224 223 227 181 179 180 76 78 80 79 77 545 -234 139 138 432 433 431 434 435 525 526 524 251 250 -235 237 154 156 155 506 504 505 507 343 344 -239 240 238 236 109 111 113 110 112 107 108 607 610 609 608 -253 254 252 265 263 262 266 264 501 503 502 -259 260 416 419 418 415 417 515 514 440 441 -261 598 599 597 184 185 186 366 368 367 -272 158 157 316 317 159 161 160 472 469 468 471 470 -281 279 280 423 553 552 -294 293 295 247 249 248 353 352 354 -307 305 306 308 304 363 365 364 361 362 116 596 595 594 527 530 529 531 528 -312 311 273 271 357 360 358 355 359 356 488 491 492 494 489 493 490 -313 314 315 89 88 91 498 499 497 500 211 210 212 467 466 -334 331 330 332 335 333 476 477 478 -375 232 231 230 233 152 151 153 566 385 386 -378 377 382 380 379 381 508 509 513 512 511 510 -406 407 405 404 68 69 67 412 414 -411 413 575 578 573 576 572 574 577 570 571 569 -424 17 16 214 215 213 216 217 409 408 410 538 -439 539 540 301 297 299 300 298 296 579 -474 475 473 106 105 103 104 173 171 172 170 567 568 0 





OBJ=
4326.947
BEST_KNOWN=
0.000